benchmark_instances/dzn_benchmark_instances/benchmark_instance_10-3.dzn
% Input: sequence of points
seq_points = [|1,1
              |9,1
              |1,2
              |9,2
              |2,3
              |1,4
              |2,4
              |1,5
              |2,5
              |9,5
              |8,6
              |9,6
              |9,7
              |1,8
              |2,8
              |8,8
              |9,8
              |1,9
              |4,9
              |6,9
              |7,9
              |8,9
              |9,0
              |10,1
              |10,2
              |10,5
              |10,7
              |4,10
              |6,10
              |7,10
              |8,10
              |9,10
              |0,2
              |0,3
              |0,9
              |0,10
              |0,0
              |0,1
             |];

num_points = 38;
