benchmark_instances/lp_benchmark_instances/benchmark_instance_10-3.lp
% Input: sequence of points
point(1,1).
point(9,1).
point(1,2).
point(9,2).
point(2,3).
point(1,4).
point(2,4).
point(1,5).
point(2,5).
point(9,5).
point(8,6).
point(9,6).
point(9,7).
point(1,8).
point(2,8).
point(8,8).
point(9,8).
point(1,9).
point(4,9).
point(6,9).
point(7,9).
point(8,9).
point(9,0).
point(10,1).
point(10,2).
point(10,5).
point(10,7).
point(4,10).
point(6,10).
point(7,10).
point(8,10).
point(9,10).
point(0,2).
point(0,3).
point(0,9).
point(0,10).
point(0,0).
point(0,1).
